40 44 51 100 18 48 32 
45 36 64 29 37 85 50 84 20 
88 
31 72 11 71 17 83 68 
23 69 46 90 10 56 2 
76 15 98 
66 
19 21 65 7 81 73 95 34 41 27 77 49 26 96 91 
16 42 33 39 43 14 59 47 58 
87 
1 22 89 
9 
82 5 4 86 55 57 25 
28 67 30 75 53 79 3 38 54 35 60 74 
12 62 78 63 94 61 6 8 80 52 99 93 92 97 13 70 24 

